\ Equation counts
\     Total        E        G        L        N        X        C        B
\	80	80	0	0
\
\ Variable counts
\                  x        b        i      s1s      s2s       sc       si
\     Total     cont   binary  integer     sos1     sos2    scont     sint
\	30	30

\ Nonzero counts
\     Total    const       NL      DLL
\
\
Minimize
 obj: [ - 3.0 x_1 * x_1 - 8.0 x_1 * x_2 - 8.0 x_1 * x_3 + 17.0 x_1 * x_4 + 18.0 x_1 * x_6 + 10.5 x_1 * x_7 - 5.5 x_1 * x_8 + 14.5 x_1 * x_9 + 21.5 x_1 * x_10 - 10.5 x_1 * x_12 + 17.0 x_1 * x_13 - 1.5 x_1 * x_16 + 24.0 x_1 * x_18 - 21.5 x_1 * x_19 - 5.0 x_1 * x_20 - 8.0 x_1 * x_23 + 5.0 x_1 * x_24 + 13.0 x_1 * x_25 + 16.0 x_1 * x_26 - 1.0 x_1 * x_27 - 19.5 x_1 * x_29 - 8.0 x_2 * x_1 + 7.5 x_2 * x_3 + 13.0 x_2 * x_4 + 23.5 x_2 * x_5 + 11.5 x_2 * x_6 - 11.5 x_2 * x_8 + 3.5 x_2 * x_9 + 6.5 x_2 * x_10 - 5.5 x_2 * x_11 - 18.0 x_2 * x_12 - 13.0 x_2 * x_13 + 10.5 x_2 * x_14 - 20.5 x_2 * x_16 - 22.0 x_2 * x_17 + 6.5 x_2 * x_18 + 13.0 x_2 * x_19 - 6.5 x_2 * x_20 + 5.5 x_2 * x_23 - 22.5 x_2 * x_24 + 10.0 x_2 * x_25 + 24.5 x_2 * x_26 + 4.0 x_2 * x_27 + 21.0 x_2 * x_28 + 11.0 x_2 * x_29 - 22.0 x_2 * x_30 - 8.0 x_3 * x_1 + 7.5 x_3 * x_2 - 14.0 x_3 * x_4 - 13.0 x_3 * x_5 + 19.0 x_3 * x_6 + 16.0 x_3 * x_8 + 12.0 x_3 * x_9 - 19.5 x_3 * x_10 + 19.5 x_3 * x_11 + 7.0 x_3 * x_12 - 17.5 x_3 * x_13 - 20.0 x_3 * x_15 - 15.5 x_3 * x_16 - 10.0 x_3 * x_18 - 5.5 x_3 * x_20 + 4.0 x_3 * x_24 + 0.5 x_3 * x_25 - 7.0 x_3 * x_26 + 14.0 x_3 * x_28 + 20.0 x_3 * x_29 + 14.5 x_3 * x_30 + 17.0 x_4 * x_1 + 13.0 x_4 * x_2 - 14.0 x_4 * x_3 - 16.5 x_4 * x_5 + 21.0 x_4 * x_6 + 13.5 x_4 * x_9 + 22.5 x_4 * x_10 + 17.0 x_4 * x_12 + 17.5 x_4 * x_15 + 3.0 x_4 * x_16 + 19.0 x_4 * x_17 + 3.5 x_4 * x_18 + 20.0 x_4 * x_19 + 4.5 x_4 * x_20 - 24.5 x_4 * x_23 - 13.5 x_4 * x_25 + 20.0 x_4 * x_26 + 10.0 x_4 * x_28 - 12.0 x_4 * x_29 + 23.5 x_5 * x_2 - 13.0 x_5 * x_3 - 16.5 x_5 * x_4 + 23.0 x_5 * x_5 + 12.5 x_5 * x_6 - 11.0 x_5 * x_7 + 6.0 x_5 * x_8 - 17.5 x_5 * x_9 + 14.0 x_5 * x_11 + 13.0 x_5 * x_13 + 5.5 x_5 * x_14 + 15.5 x_5 * x_16 - 16.5 x_5 * x_18 - 7.5 x_5 * x_20 - 4.0 x_5 * x_21 + 1.0 x_5 * x_22 - 6.0 x_5 * x_24 + 17.0 x_5 * x_25 + 1.0 x_5 * x_26 - 6.5 x_5 * x_28 - 17.5 x_5 * x_29 + 2.5 x_5 * x_30 + 18.0 x_6 * x_1 + 11.5 x_6 * x_2 + 19.0 x_6 * x_3 + 21.0 x_6 * x_4 + 12.5 x_6 * x_5 - 1.5 x_6 * x_6 - 11.0 x_6 * x_7 + 22.0 x_6 * x_8 + 2.5 x_6 * x_9 + 4.0 x_6 * x_10 + 7.5 x_6 * x_11 + 24.5 x_6 * x_14 + 24.5 x_6 * x_15 + 8.5 x_6 * x_16 + 17.5 x_6 * x_18 + 24.5 x_6 * x_19 + 13.0 x_6 * x_20 - 15.0 x_6 * x_21 - 9.5 x_6 * x_22 + 24.5 x_6 * x_24 - 20.5 x_6 * x_25 - 19.0 x_6 * x_26 + 23.0 x_6 * x_29 + 10.5 x_7 * x_1 - 11.0 x_7 * x_5 - 11.0 x_7 * x_6 + 3.0 x_7 * x_7 + 0.5 x_7 * x_8 - 3.5 x_7 * x_9 - 5.0 x_7 * x_10 + 14.5 x_7 * x_11 - 1.0 x_7 * x_15 - 7.5 x_7 * x_16 - 10.0 x_7 * x_18 + 7.5 x_7 * x_19 + 17.0 x_7 * x_20 - 5.5 x_7 * x_21 + 2.0 x_7 * x_22 + 9.5 x_7 * x_26 - 18.5 x_7 * x_27 + 19.0 x_7 * x_28 - 4.5 x_7 * x_30 - 5.5 x_8 * x_1 - 11.5 x_8 * x_2 + 16.0 x_8 * x_3 + 6.0 x_8 * x_5 + 22.0 x_8 * x_6 + 0.5 x_8 * x_7 - 23.5 x_8 * x_8 + 23.5 x_8 * x_9 - 6.0 x_8 * x_10 - 22.5 x_8 * x_13 - 18.5 x_8 * x_14 - 7.0 x_8 * x_15 + 9.0 x_8 * x_17 - 5.5 x_8 * x_18 + 2.0 x_8 * x_19 + 23.5 x_8 * x_20 - 7.5 x_8 * x_22 + 13.5 x_8 * x_25 + 8.5 x_8 * x_26 + 6.5 x_8 * x_27 + 7.5 x_8 * x_28 - 18.5 x_8 * x_30 + 14.5 x_9 * x_1 + 3.5 x_9 * x_2 + 12.0 x_9 * x_3 + 13.5 x_9 * x_4 - 17.5 x_9 * x_5 + 2.5 x_9 * x_6 - 3.5 x_9 * x_7 + 23.5 x_9 * x_8 + 10.0 x_9 * x_9 + 0.5 x_9 * x_14 - 24.0 x_9 * x_15 + 7.0 x_9 * x_16 + 22.5 x_9 * x_17 + 2.5 x_9 * x_19 - 2.5 x_9 * x_20 - 19.0 x_9 * x_29 - 11.0 x_9 * x_30 + 21.5 x_10 * x_1 + 6.5 x_10 * x_2 - 19.5 x_10 * x_3 + 22.5 x_10 * x_4 + 4.0 x_10 * x_6 - 5.0 x_10 * x_7 - 6.0 x_10 * x_8 + 17.5 x_10 * x_10 - 1.5 x_10 * x_11 + 22.5 x_10 * x_12 + 8.5 x_10 * x_14 + 23.5 x_10 * x_15 + 18.5 x_10 * x_17 + 18.5 x_10 * x_18 - 9.5 x_10 * x_20 - 1.0 x_10 * x_21 - 9.0 x_10 * x_22 - 18.0 x_10 * x_23 - 9.5 x_10 * x_25 - 4.0 x_10 * x_27 + 17.5 x_10 * x_28 - 16.5 x_10 * x_29 + 0.5 x_10 * x_30 - 5.5 x_11 * x_2 + 19.5 x_11 * x_3 + 14.0 x_11 * x_5 + 7.5 x_11 * x_6 + 14.5 x_11 * x_7 - 1.5 x_11 * x_10 + 13.0 x_11 * x_12 - 5.5 x_11 * x_14 + 24.0 x_11 * x_17 + 17.0 x_11 * x_19 - 13.5 x_11 * x_20 + 5.5 x_11 * x_21 - 17.0 x_11 * x_22 + 11.0 x_11 * x_24 + 20.5 x_11 * x_25 - 20.5 x_11 * x_27 - 10.5 x_12 * x_1 - 18.0 x_12 * x_2 + 7.0 x_12 * x_3 + 17.0 x_12 * x_4 + 22.5 x_12 * x_10 + 13.0 x_12 * x_11 + 3.0 x_12 * x_12 - 6.0 x_12 * x_13 + 11.5 x_12 * x_15 + 8.0 x_12 * x_16 + 1.5 x_12 * x_18 + 24.0 x_12 * x_20 + 10.5 x_12 * x_21 + 24.0 x_12 * x_22 - 22.0 x_12 * x_23 - 12.0 x_12 * x_24 + 5.0 x_12 * x_25 + 10.0 x_12 * x_26 + 10.5 x_12 * x_29 + 17.0 x_13 * x_1 - 13.0 x_13 * x_2 - 17.5 x_13 * x_3 + 13.0 x_13 * x_5 - 22.5 x_13 * x_8 - 6.0 x_13 * x_12 - 11.5 x_13 * x_13 + 4.5 x_13 * x_14 - 19.5 x_13 * x_17 + 18.5 x_13 * x_18 + 4.0 x_13 * x_21 + 1.5 x_13 * x_22 + 9.0 x_13 * x_23 - 14.5 x_13 * x_24 - 5.0 x_13 * x_26 + 14.5 x_13 * x_28 + 10.5 x_14 * x_2 + 5.5 x_14 * x_5 + 24.5 x_14 * x_6 - 18.5 x_14 * x_8 + 0.5 x_14 * x_9 + 8.5 x_14 * x_10 - 5.5 x_14 * x_11 + 4.5 x_14 * x_13 - 17.0 x_14 * x_14 + 15.5 x_14 * x_15 + 18.5 x_14 * x_16 + 24.5 x_14 * x_17 - 5.5 x_14 * x_18 - 6.0 x_14 * x_19 - 4.0 x_14 * x_20 - 22.0 x_14 * x_21 + 22.0 x_14 * x_22 + 13.5 x_14 * x_23 - 5.5 x_14 * x_26 - 13.5 x_14 * x_28 - 20.0 x_15 * x_3 + 17.5 x_15 * x_4 + 24.5 x_15 * x_6 - 1.0 x_15 * x_7 - 7.0 x_15 * x_8 - 24.0 x_15 * x_9 + 23.5 x_15 * x_10 + 11.5 x_15 * x_12 + 15.5 x_15 * x_14 - 4.5 x_15 * x_15 - 19.0 x_15 * x_17 + 5.0 x_15 * x_18 + 18.5 x_15 * x_19 - 12.5 x_15 * x_20 - 20.5 x_15 * x_21 - 4.0 x_15 * x_22 + 0.5 x_15 * x_23 - 9.0 x_15 * x_27 + 10.5 x_15 * x_30 - 1.5 x_16 * x_1 - 20.5 x_16 * x_2 - 15.5 x_16 * x_3 + 3.0 x_16 * x_4 + 15.5 x_16 * x_5 + 8.5 x_16 * x_6 - 7.5 x_16 * x_7 + 7.0 x_16 * x_9 + 8.0 x_16 * x_12 + 18.5 x_16 * x_14 - 14.0 x_16 * x_17 - 0.5 x_16 * x_19 + 7.0 x_16 * x_20 - 4.5 x_16 * x_21 - 22.0 x_16 * x_22 + 8.5 x_16 * x_23 + 3.0 x_16 * x_24 + 10.0 x_16 * x_26 - 1.5 x_16 * x_28 + 24.5 x_16 * x_30 - 22.0 x_17 * x_2 + 19.0 x_17 * x_4 + 9.0 x_17 * x_8 + 22.5 x_17 * x_9 + 18.5 x_17 * x_10 + 24.0 x_17 * x_11 - 19.5 x_17 * x_13 + 24.5 x_17 * x_14 - 19.0 x_17 * x_15 - 14.0 x_17 * x_16 - 20.0 x_17 * x_17 - 11.0 x_17 * x_19 + 23.5 x_17 * x_20 + 1.0 x_17 * x_22 + 20.5 x_17 * x_23 + 8.0 x_17 * x_24 - 21.0 x_17 * x_26 - 19.0 x_17 * x_29 - 3.0 x_17 * x_30 + 24.0 x_18 * x_1 + 6.5 x_18 * x_2 - 10.0 x_18 * x_3 + 3.5 x_18 * x_4 - 16.5 x_18 * x_5 + 17.5 x_18 * x_6 - 10.0 x_18 * x_7 - 5.5 x_18 * x_8 + 18.5 x_18 * x_10 + 1.5 x_18 * x_12 + 18.5 x_18 * x_13 - 5.5 x_18 * x_14 + 5.0 x_18 * x_15 - 21.5 x_18 * x_18 + 8.0 x_18 * x_19 - 11.5 x_18 * x_22 - 10.0 x_18 * x_23 + 15.5 x_18 * x_25 + 0.5 x_18 * x_26 - 8.0 x_18 * x_29 - 21.5 x_19 * x_1 + 13.0 x_19 * x_2 + 20.0 x_19 * x_4 + 24.5 x_19 * x_6 + 7.5 x_19 * x_7 + 2.0 x_19 * x_8 + 2.5 x_19 * x_9 + 17.0 x_19 * x_11 - 6.0 x_19 * x_14 + 18.5 x_19 * x_15 - 0.5 x_19 * x_16 - 11.0 x_19 * x_17 + 8.0 x_19 * x_18 + 1.0 x_19 * x_19 + 3.0 x_19 * x_21 + 7.0 x_19 * x_23 + 14.0 x_19 * x_24 + 18.5 x_19 * x_26 + 7.0 x_19 * x_27 - 1.0 x_19 * x_28 + 20.0 x_19 * x_30 - 5.0 x_20 * x_1 - 6.5 x_20 * x_2 - 5.5 x_20 * x_3 + 4.5 x_20 * x_4 - 7.5 x_20 * x_5 + 13.0 x_20 * x_6 + 17.0 x_20 * x_7 + 23.5 x_20 * x_8 - 2.5 x_20 * x_9 - 9.5 x_20 * x_10 - 13.5 x_20 * x_11 + 24.0 x_20 * x_12 - 4.0 x_20 * x_14 - 12.5 x_20 * x_15 + 7.0 x_20 * x_16 + 23.5 x_20 * x_17 - 7.5 x_20 * x_20 - 22.5 x_20 * x_21 - 24.5 x_20 * x_22 - 20.0 x_20 * x_23 - 6.0 x_20 * x_25 + 8.0 x_20 * x_26 + 4.0 x_20 * x_27 + 5.0 x_20 * x_28 - 20.5 x_20 * x_30 - 4.0 x_21 * x_5 - 15.0 x_21 * x_6 - 5.5 x_21 * x_7 - 1.0 x_21 * x_10 + 5.5 x_21 * x_11 + 10.5 x_21 * x_12 + 4.0 x_21 * x_13 - 22.0 x_21 * x_14 - 20.5 x_21 * x_15 - 4.5 x_21 * x_16 + 3.0 x_21 * x_19 - 22.5 x_21 * x_20 + 18.0 x_21 * x_22 - 9.5 x_21 * x_26 - 8.0 x_21 * x_27 - 14.5 x_21 * x_29 - 7.0 x_21 * x_30 + 1.0 x_22 * x_5 - 9.5 x_22 * x_6 + 2.0 x_22 * x_7 - 7.5 x_22 * x_8 - 9.0 x_22 * x_10 - 17.0 x_22 * x_11 + 24.0 x_22 * x_12 + 1.5 x_22 * x_13 + 22.0 x_22 * x_14 - 4.0 x_22 * x_15 - 22.0 x_22 * x_16 + 1.0 x_22 * x_17 - 11.5 x_22 * x_18 - 24.5 x_22 * x_20 + 18.0 x_22 * x_21 - 6.5 x_22 * x_22 + 1.0 x_22 * x_23 - 5.5 x_22 * x_24 + 5.0 x_22 * x_25 + 8.5 x_22 * x_26 + 8.5 x_22 * x_27 + 4.0 x_22 * x_29 + 8.0 x_22 * x_30 - 8.0 x_23 * x_1 + 5.5 x_23 * x_2 - 24.5 x_23 * x_4 - 18.0 x_23 * x_10 - 22.0 x_23 * x_12 + 9.0 x_23 * x_13 + 13.5 x_23 * x_14 + 0.5 x_23 * x_15 + 8.5 x_23 * x_16 + 20.5 x_23 * x_17 - 10.0 x_23 * x_18 + 7.0 x_23 * x_19 - 20.0 x_23 * x_20 + 1.0 x_23 * x_22 + 2.0 x_23 * x_25 - 9.0 x_23 * x_28 + 23.0 x_23 * x_29 - 10.0 x_23 * x_30 + 5.0 x_24 * x_1 - 22.5 x_24 * x_2 + 4.0 x_24 * x_3 - 6.0 x_24 * x_5 + 24.5 x_24 * x_6 + 11.0 x_24 * x_11 - 12.0 x_24 * x_12 - 14.5 x_24 * x_13 + 3.0 x_24 * x_16 + 8.0 x_24 * x_17 + 14.0 x_24 * x_19 - 5.5 x_24 * x_22 - 19.5 x_24 * x_24 + 6.0 x_24 * x_25 + 10.5 x_24 * x_26 + 17.5 x_24 * x_27 - 6.0 x_24 * x_28 + 13.0 x_25 * x_1 + 10.0 x_25 * x_2 + 0.5 x_25 * x_3 - 13.5 x_25 * x_4 + 17.0 x_25 * x_5 - 20.5 x_25 * x_6 + 13.5 x_25 * x_8 - 9.5 x_25 * x_10 + 20.5 x_25 * x_11 + 5.0 x_25 * x_12 + 15.5 x_25 * x_18 - 6.0 x_25 * x_20 + 5.0 x_25 * x_22 + 2.0 x_25 * x_23 + 6.0 x_25 * x_24 + 8.0 x_25 * x_25 - 21.0 x_25 * x_26 + 12.5 x_25 * x_28 - 3.5 x_25 * x_29 + 17.5 x_25 * x_30 + 16.0 x_26 * x_1 + 24.5 x_26 * x_2 - 7.0 x_26 * x_3 + 20.0 x_26 * x_4 + 1.0 x_26 * x_5 - 19.0 x_26 * x_6 + 9.5 x_26 * x_7 + 8.5 x_26 * x_8 + 10.0 x_26 * x_12 - 5.0 x_26 * x_13 - 5.5 x_26 * x_14 + 10.0 x_26 * x_16 - 21.0 x_26 * x_17 + 0.5 x_26 * x_18 + 18.5 x_26 * x_19 + 8.0 x_26 * x_20 - 9.5 x_26 * x_21 + 8.5 x_26 * x_22 + 10.5 x_26 * x_24 - 21.0 x_26 * x_25 - 20.0 x_26 * x_26 + 20.0 x_26 * x_27 - 18.5 x_26 * x_28 + 21.5 x_26 * x_29 - 1.0 x_27 * x_1 + 4.0 x_27 * x_2 - 18.5 x_27 * x_7 + 6.5 x_27 * x_8 - 4.0 x_27 * x_10 - 20.5 x_27 * x_11 - 9.0 x_27 * x_15 + 7.0 x_27 * x_19 + 4.0 x_27 * x_20 - 8.0 x_27 * x_21 + 8.5 x_27 * x_22 + 17.5 x_27 * x_24 + 20.0 x_27 * x_26 + 21.5 x_27 * x_27 - 13.0 x_27 * x_28 - 17.0 x_27 * x_29 + 8.5 x_27 * x_30 + 21.0 x_28 * x_2 + 14.0 x_28 * x_3 + 10.0 x_28 * x_4 - 6.5 x_28 * x_5 + 19.0 x_28 * x_7 + 7.5 x_28 * x_8 + 17.5 x_28 * x_10 + 14.5 x_28 * x_13 - 13.5 x_28 * x_14 - 1.5 x_28 * x_16 - 1.0 x_28 * x_19 + 5.0 x_28 * x_20 - 9.0 x_28 * x_23 - 6.0 x_28 * x_24 + 12.5 x_28 * x_25 - 18.5 x_28 * x_26 - 13.0 x_28 * x_27 - 3.0 x_28 * x_29 + 8.5 x_28 * x_30 - 19.5 x_29 * x_1 + 11.0 x_29 * x_2 + 20.0 x_29 * x_3 - 12.0 x_29 * x_4 - 17.5 x_29 * x_5 + 23.0 x_29 * x_6 - 19.0 x_29 * x_9 - 16.5 x_29 * x_10 + 10.5 x_29 * x_12 - 19.0 x_29 * x_17 - 8.0 x_29 * x_18 - 14.5 x_29 * x_21 + 4.0 x_29 * x_22 + 23.0 x_29 * x_23 - 3.5 x_29 * x_25 + 21.5 x_29 * x_26 - 17.0 x_29 * x_27 - 3.0 x_29 * x_28 + 13.5 x_29 * x_30 - 22.0 x_30 * x_2 + 14.5 x_30 * x_3 + 2.5 x_30 * x_5 - 4.5 x_30 * x_7 - 18.5 x_30 * x_8 - 11.0 x_30 * x_9 + 0.5 x_30 * x_10 + 10.5 x_30 * x_15 + 24.5 x_30 * x_16 - 3.0 x_30 * x_17 + 20.0 x_30 * x_19 - 20.5 x_30 * x_20 - 7.0 x_30 * x_21 + 8.0 x_30 * x_22 - 10.0 x_30 * x_23 + 17.5 x_30 * x_25 + 8.5 x_30 * x_27 + 8.5 x_30 * x_28 + 13.5 x_30 * x_29 ] - 13.0 x_1 + 27.0 x_2 + 0.0 x_3 - 36.0 x_4 + 34.0 x_5 + 43.0 x_6 + 0.0 x_7 + 16.0 x_8 + 0.0 x_9 + 11.0 x_10 - 31.0 x_11 - 36.0 x_12 + 0.0 x_13 + 0.0 x_14 + 0.0 x_15 + 17.0 x_16 + 11.0 x_17 + 0.0 x_18 - 35.0 x_19 + 6.0 x_20 + 0.0 x_21 - 34.0 x_22 + 0.0 x_23 - 3.0 x_24 - 22.0 x_25 + 0.0 x_26 + 29.0 x_27 + 0.0 x_28 - 20.0 x_29 - 7.0 x_30

Subject To
 e2: [  x_1 * x_1 ] = 0.0
 e3: [  x_1 * x_4 ] = 0.0
 e4: [  x_1 * x_25 ] = 0.0
 e5: [  x_2 * x_11 ] = 0.0
 e6: [  x_2 * x_25 ] = 0.0
 e7: [  x_2 * x_26 ] = 0.0
 e8: [  x_2 * x_29 ] = 0.0
 e9: [  x_3 * x_6 ] = 0.0
 e10: [  x_4 * x_10 ] = 0.0
 e11: [  x_6 * x_11 ] = 0.0
 e12: [  x_6 * x_20 ] = 0.0
 e13: [  x_7 * x_6 ] = 0.0
 e14: [  x_7 * x_7 ] = 0.0
 e15: [  x_7 * x_18 ] = 0.0
 e16: [  x_7 * x_30 ] = 0.0
 e17: [  x_8 * x_1 ] = 0.0
 e18: [  x_8 * x_3 ] = 0.0
 e19: [  x_8 * x_26 ] = 0.0
 e20: [  x_9 * x_1 ] = 0.0
 e21: [  x_9 * x_3 ] = 0.0
 e22: [  x_9 * x_15 ] = 0.0
 e23: [  x_9 * x_30 ] = 0.0
 e24: [  x_10 * x_30 ] = 0.0
 e25: [  x_11 * x_20 ] = 0.0
 e26: [  x_11 * x_25 ] = 0.0
 e27: [  x_12 * x_18 ] = 0.0
 e28: [  x_12 * x_29 ] = 0.0
 e29: [  x_13 * x_8 ] = 0.0
 e30: [  x_13 * x_22 ] = 0.0
 e31: [  x_14 * x_2 ] = 0.0
 e32: [  x_14 * x_5 ] = 0.0
 e33: [  x_14 * x_11 ] = 0.0
 e34: [  x_14 * x_13 ] = 0.0
 e35: [  x_14 * x_22 ] = 0.0
 e36: [  x_16 * x_7 ] = 0.0
 e37: [  x_16 * x_9 ] = 0.0
 e38: [  x_16 * x_17 ] = 0.0
 e39: [  x_16 * x_20 ] = 0.0
 e40: [  x_16 * x_24 ] = 0.0
 e41: [  x_17 * x_10 ] = 0.0
 e42: [  x_17 * x_14 ] = 0.0
 e43: [  x_17 * x_30 ] = 0.0
 e44: [  x_18 * x_1 ] = 0.0
 e45: [  x_18 * x_3 ] = 0.0
 e46: [  x_18 * x_5 ] = 0.0
 e47: [  x_19 * x_2 ] = 0.0
 e48: [  x_19 * x_7 ] = 0.0
 e49: [  x_20 * x_2 ] = 0.0
 e50: [  x_20 * x_5 ] = 0.0
 e51: [  x_20 * x_8 ] = 0.0
 e52: [  x_21 * x_7 ] = 0.0
 e53: [  x_21 * x_15 ] = 0.0
 e54: [  x_21 * x_19 ] = 0.0
 e55: [  x_22 * x_8 ] = 0.0
 e56: [  x_22 * x_18 ] = 0.0
 e57: [  x_23 * x_14 ] = 0.0
 e58: [  x_23 * x_17 ] = 0.0
 e59: [  x_24 * x_17 ] = 0.0
 e60: [  x_25 * x_4 ] = 0.0
 e61: [  x_25 * x_11 ] = 0.0
 e62: [  x_25 * x_25 ] = 0.0
 e63: [  x_25 * x_28 ] = 0.0
 e64: [  x_26 * x_2 ] = 0.0
 e65: [  x_26 * x_7 ] = 0.0
 e66: [  x_26 * x_29 ] = 0.0
 e67: [  x_27 * x_15 ] = 0.0
 e68: [  x_27 * x_20 ] = 0.0
 e69: [  x_28 * x_3 ] = 0.0
 e70: [  x_28 * x_5 ] = 0.0
 e71: [  x_28 * x_10 ] = 0.0
 e72: [  x_28 * x_13 ] = 0.0
 e73: [  x_28 * x_26 ] = 0.0
 e74: [  x_28 * x_29 ] = 0.0
 e75: [  x_29 * x_2 ] = 0.0
 e76: [  x_29 * x_4 ] = 0.0
 e77: [  x_29 * x_5 ] = 0.0
 e78: [  x_29 * x_25 ] = 0.0
 e79: [  x_29 * x_28 ] = 0.0
 e80: [  x_30 * x_17 ] = 0.0
 e81: [  x_30 * x_20 ] = 0.0

Bounds
 x_1 <= 1.0
 x_2 <= 1.0
 x_3 <= 1.0
 x_4 <= 1.0
 x_5 <= 1.0
 x_6 <= 1.0
 x_7 <= 1.0
 x_8 <= 1.0
 x_9 <= 1.0
 x_10 <= 1.0
 x_11 <= 1.0
 x_12 <= 1.0
 x_13 <= 1.0
 x_14 <= 1.0
 x_15 <= 1.0
 x_16 <= 1.0
 x_17 <= 1.0
 x_18 <= 1.0
 x_19 <= 1.0
 x_20 <= 1.0
 x_21 <= 1.0
 x_22 <= 1.0
 x_23 <= 1.0
 x_24 <= 1.0
 x_25 <= 1.0
 x_26 <= 1.0
 x_27 <= 1.0
 x_28 <= 1.0
 x_29 <= 1.0
 x_30 <= 1.0

End